(set-logic QF_S)
(declare-fun var0 () String)
(declare-fun var1 () String)
(declare-fun var2 () String)
(declare-fun var3 () String)
(declare-fun var4 () String)
(declare-fun var5 () String)
(declare-fun var6 () String)
(declare-fun var7 () String)
(declare-fun var8 () String)
(declare-fun var9 () String)
(declare-fun var10 () String)
(declare-fun var11 () String)
(declare-fun var12 () String)
(declare-fun var13 () String)
(declare-fun var14 () String)
(declare-fun var15 () String)
(declare-fun var16 () String)
(declare-fun var17 () String)
(declare-fun var18 () String)
(declare-fun var19 () String)
(declare-fun var20 () String)
(declare-fun var21 () String)
(declare-fun var22 () String)
(declare-fun var23 () String)
(declare-fun var24 () String)
(declare-fun var25 () String)
(declare-fun var26 () String)
(declare-fun var27 () String)
(declare-fun var28 () String)
(declare-fun var29 () String)
(declare-fun var30 () String)
(declare-fun var31 () String)
(declare-fun var32 () String)
(declare-fun var33 () String)
(declare-fun var34 () String)
(declare-fun var35 () String)
(declare-fun var36 () String)
(declare-fun var37 () String)
(declare-fun var38 () String)
(declare-fun var39 () String)
(declare-fun var40 () String)
(declare-fun var41 () String)
(declare-fun var42 () String)
(declare-fun var43 () String)
(declare-fun var44 () String)
(declare-fun var45 () String)
(declare-fun var46 () String)
(declare-fun var47 () String)
(declare-fun var48 () String)
(declare-fun var49 () String)
(declare-fun var50 () String)
(declare-fun var51 () String)
(declare-fun var52 () String)
(declare-fun var53 () String)
(declare-fun var54 () String)
(declare-fun var55 () String)
(declare-fun var56 () String)
(declare-fun var57 () String)
(declare-fun var58 () String)
(declare-fun var59 () String)
(declare-fun var60 () String)
(assert (= var0 (str.++ var1 var2)))
(assert (= var2 (str.++ var3 var4)))
(assert (= var4 (str.++ var5 var6)))
(assert (= var6 (str.++ var7 var8)))
(assert (= var8 (str.++ var9 var10)))
(assert (= var10 (str.++ var11 var12)))
(assert (= var12 (str.++ var13 var14)))
(assert (= var14 (str.++ var15 var16)))
(assert (= var16 (str.++ var17 var18)))
(assert (= var18 (str.++ var19 var20)))
(assert (= var20 (str.++ var21 var22)))
(assert (= var22 (str.++ var23 var24)))
(assert (= var24 (str.++ var25 var26)))
(assert (= var26 (str.++ var27 var28)))
(assert (= var28 (str.++ var29 var30)))
(assert (= var30 (str.++ var31 var32)))
(assert (= var32 (str.++ var33 var34)))
(assert (= var34 (str.++ var35 var36)))
(assert (= var36 (str.++ var37 var38)))
(assert (= var38 (str.++ var39 var40)))
(assert (= var40 (str.++ var41 var42)))
(assert (= var42 (str.++ var43 var44)))
(assert (= var44 (str.++ var45 var46)))
(assert (= var46 (str.++ var47 var48)))
(assert (= var48 (str.++ var49 var50)))
(assert (= var50 (str.++ var51 var52)))
(assert (= var52 (str.++ var53 var54)))
(assert (= var54 (str.++ var55 var56)))
(assert (= var56 (str.++ var57 var58)))
(assert (= var58 (str.++ var59 var60)))
(assert (= var0 "solution"))
(assert (= "." (str.at var15 792)))
(assert (= ";" (str.at var50 567)))
(assert (= "g" (str.at var55 861)))
(assert (= "?" (str.at var44 141)))
(assert (= "V" (str.at var46 59)))
(assert (= "v" (str.at var59 161)))
(assert (= "'" (str.at var0 139)))
(assert (= "j" (str.at var39 812)))
(assert (= "d" (str.at var50 106)))
(assert (= "c" (str.at var46 536)))
(assert (= "t" (str.at var16 77)))
(assert (= "r" (str.at var6 227)))
(assert (= "I" (str.at var43 357)))
(assert (= "r" (str.at var38 963)))
(assert (= "a" (str.at var25 44)))
(assert (= "/" (str.at var20 426)))
(assert (= "B" (str.at var6 331)))
(assert (= "M" (str.at var52 322)))
(assert (= "M" (str.at var6 739)))
(assert (= "D" (str.at var14 981)))
(assert (= "0" (str.at var2 544)))
(assert (= "[" (str.at var1 605)))
(assert (= """" (str.at var31 272)))
(assert (= "s" (str.at var37 940)))
(assert (= "t" (str.at var22 750)))
(assert (= "^" (str.at var41 755)))
(assert (= "3" (str.at var46 322)))
(assert (= "8" (str.at var4 887)))
(assert (= "." (str.at var40 740)))
(assert (= "&" (str.at var44 398)))
(assert (= "Q" (str.at var17 706)))
(assert (= "G" (str.at var26 189)))
(assert (= "_" (str.at var29 610)))
(assert (= "|" (str.at var27 727)))
(assert (= "B" (str.at var49 993)))
(assert (= "[" (str.at var30 15)))
(assert (= "}" (str.at var43 782)))
(assert (= "." (str.at var52 793)))
(assert (= "f" (str.at var46 929)))
(assert (= "i" (str.at var44 275)))
(assert (= """" (str.at var59 37)))
(assert (= "N" (str.at var56 818)))
(assert (= "c" (str.at var49 981)))
(assert (= "$" (str.at var8 945)))
(assert (= "q" (str.at var44 929)))
(assert (= "-" (str.at var18 207)))
(assert (= "#" (str.at var51 79)))
(assert (= "4" (str.at var51 89)))
(assert (= "Z" (str.at var31 54)))
(assert (= "a" (str.at var28 128)))
(assert (= "f" (str.at var54 697)))
(assert (= "`" (str.at var32 938)))
(assert (= "i" (str.at var28 488)))
(assert (= "]" (str.at var48 425)))
(assert (= "F" (str.at var34 527)))
(assert (= "L" (str.at var7 783)))
(assert (= "V" (str.at var29 593)))
(assert (= "8" (str.at var40 952)))
(assert (= "W" (str.at var26 483)))
(assert (= "%" (str.at var49 0)))
(assert (= "@" (str.at var33 657)))
(assert (= "k" (str.at var16 942)))
(assert (= "~" (str.at var3 169)))
(assert (= "B" (str.at var32 356)))
(assert (= "K" (str.at var11 671)))
(assert (= ":" (str.at var38 532)))
(assert (= "0" (str.at var17 364)))
(assert (= "z" (str.at var42 527)))
(assert (= "[" (str.at var42 839)))
(assert (= "l" (str.at var51 830)))
(assert (= "}" (str.at var23 719)))
(assert (= "D" (str.at var9 531)))
(assert (= "r" (str.at var32 511)))
(assert (= "Q" (str.at var39 236)))
(assert (= "L" (str.at var6 489)))
(assert (= "J" (str.at var21 376)))
(assert (= "S" (str.at var29 445)))
(assert (= "E" (str.at var13 996)))
(assert (= "G" (str.at var54 189)))
(assert (= "*" (str.at var8 228)))
(assert (= "x" (str.at var33 450)))
(assert (= ")" (str.at var28 473)))
(assert (= "P" (str.at var42 212)))
(assert (= "6" (str.at var55 345)))
(assert (= "3" (str.at var59 228)))
(assert (= "~" (str.at var52 809)))
(assert (= "p" (str.at var60 822)))
(assert (= "}" (str.at var17 232)))
(assert (= "y" (str.at var38 660)))
(assert (= "t" (str.at var19 258)))
(assert (= "l" (str.at var25 755)))
(assert (= """" (str.at var54 875)))
(assert (= "`" (str.at var35 48)))
(assert (= "z" (str.at var50 862)))
(assert (= "f" (str.at var46 55)))
(assert (= "(" (str.at var27 194)))
(assert (= "@" (str.at var14 888)))
(assert (= "k" (str.at var25 541)))
(assert (= "X" (str.at var19 245)))
(assert (= "i" (str.at var59 636)))
(assert (= """" (str.at var51 512)))
(assert (= "K" (str.at var58 637)))
(assert (= "]" (str.at var16 519)))
(assert (= "7" (str.at var15 872)))
(assert (= "G" (str.at var5 530)))
(assert (= "$" (str.at var3 583)))
(assert (= "N" (str.at var49 701)))
(assert (= "}" (str.at var60 466)))
(assert (= "N" (str.at var34 493)))
(assert (= "x" (str.at var40 385)))
(assert (= "U" (str.at var36 25)))
(assert (= "1" (str.at var25 598)))
(assert (= "7" (str.at var35 216)))
(assert (= "\\" (str.at var36 18)))
(assert (= "x" (str.at var54 926)))
(assert (= ">" (str.at var20 776)))
(assert (= "k" (str.at var33 362)))
(assert (= "m" (str.at var54 710)))
(assert (= "M" (str.at var9 273)))
(assert (= "%" (str.at var18 436)))
(assert (= "0" (str.at var37 622)))
(assert (= "W" (str.at var4 915)))
(assert (= "J" (str.at var12 598)))
(assert (= "v" (str.at var20 660)))
(assert (= "," (str.at var56 545)))
(assert (= "N" (str.at var57 990)))
(assert (= "b" (str.at var47 628)))
(assert (= "K" (str.at var17 665)))
(assert (= "'" (str.at var56 110)))
(assert (= "e" (str.at var38 916)))
(assert (= "?" (str.at var43 73)))
(assert (= "%" (str.at var22 373)))
(assert (= "_" (str.at var58 767)))
(assert (= "_" (str.at var48 10)))
(assert (= "w" (str.at var17 531)))
(assert (= "," (str.at var12 782)))
(assert (= "~" (str.at var33 77)))
(assert (= "W" (str.at var31 47)))
(assert (= "x" (str.at var32 547)))
(assert (= "e" (str.at var59 653)))
(assert (= "X" (str.at var8 771)))
(assert (= "]" (str.at var1 932)))
(assert (= "M" (str.at var55 566)))
(assert (= ")" (str.at var11 852)))
(assert (= "a" (str.at var50 564)))
(assert (= "i" (str.at var16 369)))
(assert (= "q" (str.at var24 982)))
(assert (= "+" (str.at var35 700)))
(assert (= "i" (str.at var53 527)))
(assert (= "0" (str.at var38 927)))
(assert (= "R" (str.at var17 924)))
(assert (= "u" (str.at var14 592)))
(assert (= "'" (str.at var60 337)))
(assert (= "V" (str.at var24 427)))
(assert (= "x" (str.at var40 919)))
(assert (= "K" (str.at var18 168)))
(assert (= "C" (str.at var60 180)))
(assert (= "e" (str.at var38 754)))
(assert (= "|" (str.at var52 892)))
(assert (= "@" (str.at var2 742)))
(assert (= "O" (str.at var25 132)))
(assert (= "0" (str.at var59 138)))
(assert (= "\\" (str.at var47 510)))
(assert (= "K" (str.at var20 248)))
(assert (= "<" (str.at var40 79)))
(assert (= "q" (str.at var21 175)))
(assert (= "w" (str.at var14 467)))
(assert (= "q" (str.at var52 250)))
(assert (= "b" (str.at var58 917)))
(assert (= "T" (str.at var45 825)))
(assert (= "o" (str.at var44 811)))
(assert (= "S" (str.at var40 806)))
(assert (= "\\" (str.at var18 612)))
(assert (= "+" (str.at var59 821)))
(assert (= "?" (str.at var33 147)))
(assert (= "E" (str.at var33 273)))
(assert (= "1" (str.at var34 851)))
(assert (= "O" (str.at var8 190)))
(assert (= "x" (str.at var30 294)))
(assert (= ";" (str.at var28 930)))
(assert (= "3" (str.at var53 48)))
(assert (= ";" (str.at var22 766)))
(assert (= "u" (str.at var43 463)))
(assert (= "#" (str.at var20 748)))
(assert (= "$" (str.at var12 576)))
(assert (= "Y" (str.at var55 229)))
(assert (= "W" (str.at var29 553)))
(assert (= "m" (str.at var49 918)))
(assert (= "u" (str.at var24 990)))
(assert (= "U" (str.at var24 806)))
(assert (= "i" (str.at var1 361)))
(assert (= "@" (str.at var8 73)))
(assert (= "6" (str.at var0 426)))
(assert (= "W" (str.at var27 241)))
(assert (= "|" (str.at var31 350)))
(assert (= "Y" (str.at var29 208)))
(assert (= "`" (str.at var35 34)))
(assert (= "Y" (str.at var25 165)))
(assert (= "K" (str.at var16 994)))
(assert (= "E" (str.at var9 423)))
(assert (= "k" (str.at var26 937)))
(assert (= ">" (str.at var15 415)))
(assert (= "t" (str.at var0 976)))
(assert (= "0" (str.at var55 604)))
(assert (= "k" (str.at var22 780)))
(assert (= "U" (str.at var2 588)))
(assert (= "p" (str.at var60 962)))
(assert (= "(" (str.at var42 301)))
(assert (= "1" (str.at var12 899)))
(assert (= "!" (str.at var2 562)))
(assert (= "D" (str.at var30 891)))
(assert (= "@" (str.at var41 833)))
(assert (= "7" (str.at var46 222)))
(assert (= "X" (str.at var50 520)))
(assert (= "&" (str.at var56 884)))
(assert (= "Y" (str.at var53 464)))
(assert (= "_" (str.at var17 251)))
(assert (= "Y" (str.at var1 504)))
(assert (= "<" (str.at var59 201)))
(assert (= "k" (str.at var33 53)))
(assert (= "~" (str.at var31 630)))
(assert (= "!" (str.at var18 459)))
(assert (= "0" (str.at var16 587)))
(assert (= "]" (str.at var7 778)))
(assert (= "t" (str.at var45 86)))
(assert (= "D" (str.at var6 197)))
(assert (= "~" (str.at var11 573)))
(assert (= "$" (str.at var15 225)))
(assert (= "e" (str.at var36 563)))
(assert (= "8" (str.at var7 565)))
(assert (= "R" (str.at var48 147)))
(assert (= "\\" (str.at var51 524)))
(assert (= ":" (str.at var1 517)))
(assert (= "M" (str.at var51 90)))
(assert (= "4" (str.at var11 992)))
(assert (= "$" (str.at var43 857)))
(assert (= "+" (str.at var37 419)))
(assert (= "|" (str.at var46 343)))
(assert (= "{" (str.at var7 239)))
(assert (= "P" (str.at var21 938)))
(assert (= "F" (str.at var43 95)))
(assert (= "(" (str.at var37 624)))
(assert (= "x" (str.at var39 53)))
(assert (= "N" (str.at var0 801)))
(assert (= "f" (str.at var53 852)))
(assert (= "u" (str.at var25 954)))
(assert (= "3" (str.at var10 227)))
(assert (= "l" (str.at var4 641)))
(assert (= "D" (str.at var51 7)))
(assert (= "-" (str.at var5 536)))
(assert (= "E" (str.at var53 927)))
(assert (= "^" (str.at var53 650)))
(assert (= "_" (str.at var27 745)))
(assert (= "r" (str.at var29 622)))
(assert (= "A" (str.at var58 432)))
(assert (= "T" (str.at var22 685)))
(assert (= "-" (str.at var2 469)))
(assert (= "?" (str.at var48 394)))
(assert (= "." (str.at var17 593)))
(assert (= "s" (str.at var15 98)))
(assert (= "E" (str.at var54 83)))
(assert (= "Y" (str.at var29 199)))
(assert (= "}" (str.at var57 530)))
(assert (= "m" (str.at var51 450)))
(assert (= "U" (str.at var25 946)))
(assert (= "k" (str.at var56 675)))
(assert (= "7" (str.at var52 425)))
(assert (= "J" (str.at var56 389)))
(assert (= "N" (str.at var58 39)))
(assert (= "," (str.at var0 470)))
(assert (= "*" (str.at var12 329)))
(assert (= "/" (str.at var34 466)))
(assert (= "L" (str.at var10 517)))
(assert (= "L" (str.at var23 399)))
(assert (= "y" (str.at var34 115)))
(assert (= "4" (str.at var0 703)))
(assert (= "k" (str.at var6 872)))
(assert (= "g" (str.at var57 855)))
(assert (= "H" (str.at var37 906)))
(assert (= "6" (str.at var43 848)))
(assert (= "x" (str.at var55 481)))
(assert (= "r" (str.at var59 754)))
(assert (= "#" (str.at var22 44)))
(assert (= "B" (str.at var58 826)))
(assert (= "9" (str.at var17 513)))
(assert (= "[" (str.at var46 820)))
(assert (= "m" (str.at var50 607)))
(assert (= "A" (str.at var47 492)))
(assert (= "Z" (str.at var55 374)))
(assert (= "F" (str.at var41 424)))
(assert (= "y" (str.at var43 328)))
(assert (= "w" (str.at var26 512)))
(assert (= "p" (str.at var44 242)))
(assert (= "[" (str.at var6 414)))
(assert (= ":" (str.at var2 851)))
(assert (= "2" (str.at var52 304)))
(assert (= "c" (str.at var18 487)))
(assert (= "'" (str.at var56 974)))
(assert (= "g" (str.at var23 540)))
(assert (= "(" (str.at var5 606)))
(assert (= "d" (str.at var6 62)))
(assert (= "B" (str.at var5 415)))
(assert (= "<" (str.at var47 425)))
(assert (= "c" (str.at var51 875)))
(assert (= "3" (str.at var48 195)))
(assert (= "Y" (str.at var55 700)))
(assert (= "%" (str.at var7 371)))
(assert (= "y" (str.at var3 382)))
(assert (= "\\" (str.at var56 127)))
(assert (= "8" (str.at var31 835)))
(assert (= "G" (str.at var57 532)))
(assert (= "d" (str.at var28 510)))
(assert (= "w" (str.at var46 763)))
(assert (= "`" (str.at var49 397)))
(assert (= "+" (str.at var12 820)))
(assert (= "*" (str.at var22 193)))
(assert (= "|" (str.at var1 412)))
(assert (= "n" (str.at var37 18)))
(assert (= "x" (str.at var58 25)))
(assert (= "e" (str.at var40 335)))
(assert (= "r" (str.at var27 372)))
(check-sat)
(get-model)